52643
1, 27, 31, 25, 11, 45, 52, 15, 36, 46, 39, 16, 10, 22, 29, 21, 23, 17, 48, 49, 19, 41, 32, 44, 8, 38, 50, 20, 24, 35, 5, 37, 7, 40, 51, 13, 43, 3, 6, 28, 55, 26, 53, 34, 54, 47, 30, 4, 18, 12, 9, 14, 2, 42, 33
